networks/zoo_134_1769/zoo_134_1769-lower.txt
Number of groups: 53
Flow 1: {1 8 0} {8 5 0} {5 12 0} {12 79 0} 
Flow 2: {12 15 0} {15 31 0} {31 42 0} {42 18 0} {18 85 0} 
Flow 3: {18 39 0} {39 38 0} {38 34 0} {34 101 0} 
Flow 4: {8 35 0} {35 102 0} 
Flow 5: {5 46 0} {46 37 0} {37 104 0} 
Flow 6: {42 45 0} {45 112 0} 
Flow 7: {63 2 0} {2 64 0} {64 65 0} {65 67 0} {67 54 0} {35 63 0} {54 121 0} 
Flow 8: {12 56 0} {56 123 0} 
Flow 9: {63 62 0} {62 57 0} {57 59 0} {59 126 0} 
Flow 10: {63 130 0} 
Flow 11: {64 131 0} 
Flow 12: {2 63 0} {63 11 0} {11 5 0} {5 72 0} 
Flow 13: {63 35 0} {35 7 0} {7 74 0} 
Flow 14: {35 8 0} {8 75 0} 
Flow 15: {42 33 0} {33 10 0} {10 77 0} 
Flow 15: {64 50 0} {50 17 0} {17 18 0} {18 42 0} Flow 16: {11 78 0} 
Flow 18: {15 82 0} 
Flow 19: {31 29 0} {29 16 0} {16 83 0} 
Flow 20: {17 84 0} 
Flow 22: {54 48 0} {48 19 0} {19 86 0} 
Flow 23: {17 26 0} {26 25 0} {25 21 0} {21 20 0} {20 87 0} 
Flow 24: {34 22 0} {22 89 0} 
Flow 25: {18 43 0} {43 40 0} {41 24 0} {24 91 0} 
Flow 25: {40 41 0} Flow 26: {25 92 0} 
Flow 27: {10 27 0} {27 94 0} 
Flow 28: {29 96 0} 
Flow 29: {33 100 0} 
Flow 32: {63 32 0} {32 36 0} {36 103 0} 
Flow 33: {32 37 0} Flow 34: {38 105 0} 
Flow 35: {41 108 0} 
Flow 36: {42 109 0} 
Flow 37: {43 110 0} 
Flow 38: {31 44 0} {44 111 0} 
Flow 40: {52 47 0} {47 114 0} 
Flow 40: {50 51 0} {51 52 0} Flow 41: {50 117 0} 
Flow 42: {51 118 0} 
Flow 43: {52 119 0} 
Flow 47: {62 61 0} {61 60 0} {60 127 0} 
Flow 48: {61 128 0} 
Flow 49: {62 129 0} 
Flow 52: {65 132 0} 
Flow 53: {67 66 0} {66 133 0} 
Flow 54: {67 134 0} 
Flow 55: {2 69 0} 
Flow 55: {3 59 0} {59 57 0} {57 62 0} {62 63 0} Flow 59: {3 58 0} {58 66 0} {66 67 0} {67 65 0} {65 64 0} Flow 67: {19 20 0} Flow 68: {20 21 0} {21 88 0} 
Flow 71: {21 25 0} Flow 85: {54 55 0} {55 47 0} Flow 88: {47 52 0} Flow 91: {57 124 0} 
Flow 93: {3 60 0} Flow 94: {60 61 0} Flow 101: {4 3 0} Flow 125: {5 11 0} {11 63 0} Flow 126: {5 8 0} Flow 142: {35 36 0} Flow 162: {59 66 0} Flow 164: {6 5 0} Flow 199: {6 49 0} {49 56 0} Flow 209: {7 35 0} Flow 254: {9 46 0} {46 5 0} Flow 262: {10 33 0} {33 43 0} {43 18 0} {18 17 0} {17 50 0} {50 64 0} {64 2 0} Flow 263: {42 31 0} {31 15 0} {15 12 0} {12 5 0} {33 42 0} Flow 269: {10 13 0} {13 16 0} Flow 272: {20 19 0} Flow 274: {24 22 0} Flow 278: {16 29 0} Flow 287: {33 45 0} {45 44 0} Flow 295: {66 59 0} Flow 340: {59 3 0} {3 70 0} 
Flow 369: {46 113 0} 
Flow 371: {56 49 0} {49 116 0} 
Flow 375: {3 53 0} {53 120 0} 
Flow 388: {13 10 0} Flow 389: {29 31 0} Flow 459: {66 58 0} {58 3 0} Flow 503: {19 48 0} {48 54 0} {54 67 0} Flow 507: {25 26 0} {26 17 0} Flow 533: {52 51 0} Flow 588: {22 34 0} {34 38 0} {38 39 0} {39 18 0} Flow 592: {22 24 0} {24 41 0} {41 40 0} {40 43 0} {43 33 0} Flow 699: {27 10 0} Flow 726: {28 27 0} Flow 755: {30 15 0} Flow 763: {30 56 0} Flow 775: {16 13 0} {13 80 0} 
Flow 807: {47 55 0} {55 122 0} 
Flow 819: {32 63 0} Flow 820: {37 46 0} Flow 821: {36 35 0} Flow 950: {5 6 0} {6 73 0} 
Flow 972: {36 37 0} Flow 999: {36 32 0} Flow 1034: {37 32 0} Flow 1042: {37 36 0} Flow 1209: {45 42 0} Flow 1214: {45 33 0} Flow 1306: {51 50 0} Flow 1315: {55 54 0} Flow 1351: {49 6 0} Flow 1355: {56 12 0} Flow 1593: {61 62 0} Flow 1600: {60 3 0} Time taken running everything: 0 seconds
